c This file was generated with the constraints_to_cnf module in this project.
c Starting from file 'constraints_2.txt'.
c There are 19 variables present in the constraints, and 19 total variables, given by the shape [19].
c
p cnf 19 172
-1 -2 0
-1 -11 0
-1 -12 0
-1 -13 0
-1 -14 0
-1 -15 0
-1 -16 0
-1 -17 0
-1 -18 0
-1 -19 0
-1 -3 0
-1 -4 0
-1 -5 0
-1 -6 0
-1 -7 0
-1 -8 0
-1 -9 0
-1 -10 0
-2 -11 0
-2 -12 0
-2 -13 0
-2 -14 0
-2 -15 0
-2 -16 0
-2 -17 0
-2 -18 0
-2 -19 0
-2 -3 0
-2 -4 0
-2 -5 0
-2 -6 0
-2 -7 0
-2 -8 0
-2 -9 0
-2 -10 0
-11 -12 0
-11 -13 0
-11 -14 0
-11 -15 0
-11 -16 0
-11 -17 0
-11 -18 0
-11 -19 0
-11 -3 0
-11 -4 0
-11 -5 0
-11 -6 0
-11 -7 0
-11 -8 0
-11 -9 0
-11 -10 0
-12 -13 0
-12 -14 0
-12 -15 0
-12 -16 0
-12 -17 0
-12 -18 0
-12 -19 0
-12 -3 0
-12 -4 0
-12 -5 0
-12 -6 0
-12 -7 0
-12 -8 0
-12 -9 0
-12 -10 0
-13 -14 0
-13 -15 0
-13 -16 0
-13 -17 0
-13 -18 0
-13 -19 0
-13 -3 0
-13 -4 0
-13 -5 0
-13 -6 0
-13 -7 0
-13 -8 0
-13 -9 0
-13 -10 0
-14 -15 0
-14 -16 0
-14 -17 0
-14 -18 0
-14 -19 0
-14 -3 0
-14 -4 0
-14 -5 0
-14 -6 0
-14 -7 0
-14 -8 0
-14 -9 0
-14 -10 0
-15 -16 0
-15 -17 0
-15 -18 0
-15 -19 0
-15 -3 0
-15 -4 0
-15 -5 0
-15 -6 0
-15 -7 0
-15 -8 0
-15 -9 0
-15 -10 0
-16 -17 0
-16 -18 0
-16 -19 0
-16 -3 0
-16 -4 0
-16 -5 0
-16 -6 0
-16 -7 0
-16 -8 0
-16 -9 0
-16 -10 0
-17 -18 0
-17 -19 0
-17 -3 0
-17 -4 0
-17 -5 0
-17 -6 0
-17 -7 0
-17 -8 0
-17 -9 0
-17 -10 0
-18 -19 0
-18 -3 0
-18 -4 0
-18 -5 0
-18 -6 0
-18 -7 0
-18 -8 0
-18 -9 0
-18 -10 0
-19 -3 0
-19 -4 0
-19 -5 0
-19 -6 0
-19 -7 0
-19 -8 0
-19 -9 0
-19 -10 0
-3 -4 0
-3 -5 0
-3 -6 0
-3 -7 0
-3 -8 0
-3 -9 0
-3 -10 0
-4 -5 0
-4 -6 0
-4 -7 0
-4 -8 0
-4 -9 0
-4 -10 0
-5 -6 0
-5 -7 0
-5 -8 0
-5 -9 0
-5 -10 0
-6 -7 0
-6 -8 0
-6 -9 0
-6 -10 0
-7 -8 0
-7 -9 0
-7 -10 0
-8 -9 0
-8 -10 0
-9 -10 0
1 2 11 12 13 14 15 16 17 18 19 3 4 5 6 7 8 9 10 0

